c "54886.clq"
p edge 100 1344
e 1 17
e 1 18
e 1 20
e 1 22
e 1 24
e 1 25
e 1 26
e 1 28
e 1 30
e 1 31
e 1 34
e 1 36
e 1 39
e 1 41
e 1 44
e 1 57
e 1 58
e 1 61
e 1 62
e 1 72
e 1 85
e 1 94
e 1 95
e 2 17
e 2 18
e 2 19
e 2 20
e 2 21
e 2 23
e 2 24
e 2 25
e 2 26
e 2 27
e 2 28
e 2 29
e 2 32
e 2 36
e 2 39
e 2 42
e 2 43
e 2 47
e 2 48
e 2 52
e 2 53
e 2 54
e 2 55
e 2 57
e 2 58
e 2 59
e 2 61
e 2 64
e 2 66
e 2 71
e 2 72
e 2 73
e 2 75
e 2 87
e 2 91
e 2 95
e 2 96
e 3 17
e 3 18
e 3 19
e 3 20
e 3 21
e 3 23
e 3 24
e 3 26
e 3 29
e 3 30
e 3 31
e 3 34
e 3 35
e 3 37
e 3 42
e 3 47
e 3 53
e 3 55
e 3 61
e 3 67
e 3 68
e 3 92
e 3 97
e 4 17
e 4 18
e 4 19
e 4 20
e 4 21
e 4 22
e 4 23
e 4 25
e 4 27
e 4 32
e 4 34
e 4 36
e 4 37
e 4 38
e 4 39
e 4 40
e 4 44
e 4 45
e 4 51
e 4 54
e 4 66
e 4 74
e 4 75
e 4 82
e 4 93
e 5 17
e 5 18
e 5 19
e 5 21
e 5 22
e 5 23
e 5 25
e 5 26
e 5 28
e 5 29
e 5 31
e 5 32
e 5 33
e 5 34
e 5 36
e 5 37
e 5 40
e 5 41
e 5 44
e 5 48
e 5 51
e 5 52
e 5 53
e 5 54
e 5 57
e 5 63
e 5 65
e 5 67
e 5 78
e 5 85
e 5 86
e 5 88
e 5 93
e 5 94
e 6 17
e 6 18
e 6 19
e 6 20
e 6 21
e 6 22
e 6 26
e 6 29
e 6 30
e 6 31
e 6 49
e 6 51
e 6 58
e 6 71
e 7 17
e 7 18
e 7 19
e 7 20
e 7 21
e 7 23
e 7 24
e 7 26
e 7 27
e 7 29
e 7 32
e 7 33
e 7 34
e 7 37
e 7 38
e 7 39
e 7 41
e 7 42
e 7 49
e 7 51
e 7 77
e 7 86
e 7 87
e 7 89
e 7 97
e 7 99
e 8 17
e 8 18
e 8 19
e 8 20
e 8 21
e 8 25
e 8 26
e 8 27
e 8 30
e 8 32
e 8 40
e 8 41
e 8 54
e 8 60
e 8 63
e 8 69
e 8 81
e 8 91
e 9 17
e 9 18
e 9 19
e 9 20
e 9 21
e 9 22
e 9 24
e 9 25
e 9 26
e 9 27
e 9 28
e 9 31
e 9 36
e 9 40
e 9 43
e 9 50
e 9 51
e 9 54
e 9 56
e 9 65
e 9 68
e 9 82
e 9 83
e 10 17
e 10 18
e 10 19
e 10 22
e 10 24
e 10 25
e 10 26
e 10 28
e 10 30
e 10 33
e 10 35
e 10 38
e 10 42
e 10 43
e 10 46
e 10 47
e 10 48
e 10 49
e 10 62
e 10 65
e 10 66
e 10 71
e 10 74
e 10 82
e 10 83
e 10 84
e 10 89
e 10 97
e 11 17
e 11 20
e 11 25
e 11 27
e 11 60
e 11 98
e 12 17
e 12 18
e 12 19
e 12 21
e 12 22
e 12 23
e 12 26
e 12 28
e 12 29
e 12 30
e 12 32
e 12 34
e 12 37
e 12 43
e 12 48
e 12 51
e 12 55
e 12 56
e 12 60
e 12 61
e 12 68
e 12 69
e 12 72
e 12 76
e 12 86
e 12 91
e 12 95
e 12 98
e 12 100
e 13 17
e 13 18
e 13 19
e 13 20
e 13 22
e 13 23
e 13 24
e 13 25
e 13 26
e 13 27
e 13 28
e 13 31
e 13 43
e 13 46
e 13 50
e 13 57
e 13 59
e 13 64
e 13 69
e 13 75
e 13 80
e 14 17
e 14 18
e 14 19
e 14 20
e 14 21
e 14 22
e 14 23
e 14 26
e 14 28
e 14 29
e 14 30
e 14 35
e 14 37
e 14 43
e 14 50
e 14 51
e 14 60
e 14 66
e 14 67
e 14 70
e 14 88
e 14 99
e 15 17
e 15 18
e 15 19
e 15 20
e 15 21
e 15 22
e 15 23
e 15 24
e 15 25
e 15 27
e 15 31
e 15 32
e 15 33
e 15 34
e 15 38
e 15 42
e 15 45
e 15 46
e 15 49
e 15 50
e 15 51
e 15 52
e 15 53
e 15 54
e 15 55
e 15 60
e 15 64
e 15 65
e 15 66
e 15 68
e 15 69
e 15 73
e 16 17
e 16 18
e 16 19
e 16 20
e 16 21
e 16 22
e 16 23
e 16 24
e 16 25
e 16 33
e 16 34
e 16 35
e 16 39
e 16 43
e 16 52
e 16 57
e 16 59
e 16 61
e 16 63
e 16 72
e 16 74
e 16 79
e 16 82
e 16 84
e 17 18
e 17 19
e 17 20
e 17 21
e 17 22
e 17 23
e 17 24
e 17 26
e 17 27
e 17 28
e 17 29
e 17 30
e 17 31
e 17 32
e 17 33
e 17 34
e 17 36
e 17 37
e 17 40
e 17 41
e 17 44
e 17 45
e 17 46
e 17 47
e 17 48
e 17 49
e 17 52
e 17 53
e 17 54
e 17 55
e 17 56
e 17 57
e 17 58
e 17 59
e 17 61
e 17 62
e 17 64
e 17 72
e 17 73
e 17 74
e 17 76
e 17 77
e 17 80
e 17 83
e 17 86
e 17 88
e 17 90
e 17 94
e 17 95
e 17 96
e 17 98
e 17 100
e 18 19
e 18 20
e 18 21
e 18 22
e 18 23
e 18 24
e 18 29
e 18 30
e 18 31
e 18 32
e 18 33
e 18 35
e 18 36
e 18 37
e 18 41
e 18 42
e 18 44
e 18 46
e 18 48
e 18 49
e 18 51
e 18 55
e 18 56
e 18 57
e 18 59
e 18 60
e 18 61
e 18 62
e 18 63
e 18 64
e 18 66
e 18 68
e 18 69
e 18 70
e 18 74
e 18 75
e 18 76
e 18 77
e 18 81
e 18 86
e 18 87
e 18 88
e 18 89
e 18 90
e 18 91
e 18 94
e 18 96
e 18 97
e 19 20
e 19 21
e 19 22
e 19 23
e 19 24
e 19 25
e 19 26
e 19 28
e 19 29
e 19 30
e 19 31
e 19 33
e 19 35
e 19 37
e 19 38
e 19 39
e 19 45
e 19 46
e 19 47
e 19 52
e 19 54
e 19 55
e 19 57
e 19 59
e 19 60
e 19 61
e 19 65
e 19 69
e 19 70
e 19 74
e 19 75
e 19 77
e 19 78
e 19 79
e 19 80
e 19 82
e 19 83
e 19 84
e 19 85
e 19 87
e 19 89
e 19 92
e 19 93
e 19 95
e 19 96
e 19 99
e 20 21
e 20 22
e 20 23
e 20 24
e 20 25
e 20 26
e 20 27
e 20 28
e 20 29
e 20 30
e 20 31
e 20 32
e 20 35
e 20 36
e 20 37
e 20 38
e 20 39
e 20 41
e 20 42
e 20 46
e 20 47
e 20 48
e 20 49
e 20 52
e 20 54
e 20 55
e 20 63
e 20 64
e 20 66
e 20 70
e 20 72
e 20 75
e 20 77
e 20 79
e 20 87
e 20 88
e 20 94
e 20 96
e 20 98
e 20 100
e 21 22
e 21 23
e 21 24
e 21 25
e 21 27
e 21 28
e 21 29
e 21 31
e 21 33
e 21 34
e 21 35
e 21 36
e 21 37
e 21 38
e 21 39
e 21 41
e 21 42
e 21 43
e 21 45
e 21 46
e 21 49
e 21 50
e 21 53
e 21 57
e 21 60
e 21 61
e 21 67
e 21 76
e 21 79
e 21 85
e 21 88
e 21 89
e 21 97
e 22 23
e 22 24
e 22 25
e 22 27
e 22 28
e 22 30
e 22 31
e 22 33
e 22 34
e 22 35
e 22 36
e 22 39
e 22 40
e 22 42
e 22 43
e 22 44
e 22 45
e 22 47
e 22 48
e 22 49
e 22 52
e 22 53
e 22 56
e 22 57
e 22 59
e 22 61
e 22 64
e 22 65
e 22 70
e 22 71
e 22 72
e 22 78
e 22 79
e 22 81
e 22 82
e 22 86
e 22 89
e 22 92
e 22 93
e 22 95
e 22 99
e 23 24
e 23 25
e 23 27
e 23 28
e 23 29
e 23 31
e 23 34
e 23 35
e 23 37
e 23 40
e 23 41
e 23 43
e 23 44
e 23 45
e 23 46
e 23 47
e 23 52
e 23 58
e 23 60
e 23 62
e 23 63
e 23 65
e 23 68
e 23 69
e 23 72
e 23 74
e 23 81
e 23 84
e 23 87
e 23 88
e 23 90
e 24 26
e 24 27
e 24 31
e 24 32
e 24 33
e 24 34
e 24 35
e 24 38
e 24 39
e 24 40
e 24 42
e 24 44
e 24 46
e 24 55
e 24 56
e 24 58
e 24 59
e 24 60
e 24 62
e 24 63
e 24 64
e 24 67
e 24 68
e 24 71
e 24 74
e 24 76
e 24 83
e 24 91
e 24 95
e 24 96
e 24 97
e 24 100
e 25 27
e 25 28
e 25 29
e 25 30
e 25 32
e 25 33
e 25 34
e 25 35
e 25 36
e 25 37
e 25 38
e 25 42
e 25 45
e 25 49
e 25 50
e 25 51
e 25 53
e 25 56
e 25 57
e 25 58
e 25 60
e 25 65
e 25 66
e 25 70
e 25 71
e 25 74
e 25 76
e 25 82
e 25 83
e 25 87
e 25 93
e 25 97
e 25 100
e 26 27
e 26 28
e 26 29
e 26 30
e 26 31
e 26 32
e 26 33
e 26 34
e 26 35
e 26 38
e 26 40
e 26 41
e 26 42
e 26 43
e 26 44
e 26 48
e 26 55
e 26 63
e 26 70
e 26 73
e 26 75
e 26 76
e 26 77
e 26 78
e 26 80
e 26 84
e 26 94
e 26 96
e 27 30
e 27 32
e 27 33
e 27 34
e 27 35
e 27 37
e 27 38
e 27 49
e 27 56
e 27 58
e 27 64
e 27 67
e 27 68
e 27 73
e 27 81
e 28 29
e 28 38
e 28 39
e 28 40
e 28 41
e 28 44
e 28 45
e 28 48
e 28 49
e 28 50
e 28 51
e 28 52
e 28 56
e 28 57
e 28 59
e 28 62
e 28 63
e 28 66
e 28 67
e 28 69
e 28 73
e 28 77
e 28 79
e 28 85
e 28 88
e 28 90
e 28 93
e 29 30
e 29 32
e 29 39
e 29 40
e 29 42
e 29 43
e 29 44
e 29 46
e 29 47
e 29 48
e 29 54
e 29 60
e 29 63
e 29 66
e 29 67
e 29 74
e 29 75
e 29 80
e 29 83
e 29 86
e 29 90
e 29 93
e 29 95
e 29 97
e 30 32
e 30 33
e 30 36
e 30 38
e 30 39
e 30 45
e 30 48
e 30 52
e 30 54
e 30 55
e 30 60
e 30 62
e 30 67
e 30 69
e 30 71
e 30 80
e 30 84
e 30 90
e 30 97
e 31 33
e 31 35
e 31 36
e 31 40
e 31 44
e 31 46
e 31 50
e 31 51
e 31 54
e 31 58
e 31 59
e 31 61
e 31 67
e 31 70
e 31 71
e 31 75
e 31 81
e 31 82
e 31 84
e 31 85
e 31 86
e 31 87
e 31 90
e 31 91
e 32 35
e 32 36
e 32 37
e 32 38
e 32 40
e 32 41
e 32 43
e 32 45
e 32 46
e 32 48
e 32 50
e 32 56
e 32 58
e 32 62
e 32 64
e 32 66
e 32 68
e 32 71
e 32 77
e 32 79
e 32 80
e 32 82
e 32 84
e 32 85
e 32 86
e 32 94
e 32 95
e 32 96
e 32 98
e 33 38
e 33 39
e 33 45
e 33 46
e 33 47
e 33 48
e 33 52
e 33 53
e 33 55
e 33 56
e 33 61
e 33 74
e 33 77
e 33 79
e 33 80
e 33 81
e 33 93
e 34 36
e 34 37
e 34 40
e 34 41
e 34 43
e 34 46
e 34 47
e 34 51
e 34 54
e 34 58
e 34 61
e 34 65
e 34 70
e 34 77
e 34 80
e 34 87
e 35 36
e 35 40
e 35 41
e 35 42
e 35 51
e 35 55
e 35 58
e 35 59
e 35 62
e 35 65
e 35 66
e 35 67
e 35 70
e 35 73
e 35 79
e 35 84
e 35 85
e 35 91
e 35 94
e 35 95
e 35 96
e 35 98
e 35 99
e 36 38
e 36 39
e 36 40
e 36 41
e 36 50
e 36 52
e 36 58
e 36 59
e 36 62
e 36 73
e 36 86
e 36 88
e 36 90
e 36 92
e 36 96
e 37 39
e 37 45
e 37 46
e 37 47
e 37 57
e 37 64
e 37 72
e 37 73
e 37 78
e 37 79
e 37 80
e 37 82
e 37 84
e 37 89
e 37 93
e 37 99
e 38 42
e 38 44
e 38 45
e 38 49
e 38 50
e 38 53
e 38 59
e 38 63
e 38 64
e 38 69
e 38 72
e 38 82
e 38 90
e 38 94
e 38 98
e 38 100
e 39 43
e 39 45
e 39 50
e 39 54
e 39 56
e 39 57
e 39 58
e 39 61
e 39 62
e 39 68
e 39 70
e 39 71
e 39 76
e 39 78
e 39 99
e 40 41
e 40 45
e 40 48
e 40 49
e 40 50
e 40 51
e 40 53
e 40 65
e 40 74
e 40 76
e 40 80
e 40 81
e 40 84
e 40 85
e 40 96
e 40 99
e 40 100
e 41 42
e 41 44
e 41 47
e 41 55
e 41 62
e 41 65
e 41 68
e 41 70
e 41 71
e 41 73
e 41 76
e 41 78
e 41 85
e 41 96
e 41 99
e 42 43
e 42 44
e 42 47
e 42 49
e 42 53
e 42 54
e 42 55
e 42 75
e 42 79
e 42 85
e 42 97
e 42 100
e 43 44
e 43 53
e 43 60
e 43 64
e 43 72
e 43 74
e 43 79
e 43 91
e 43 99
e 44 47
e 44 48
e 44 57
e 44 61
e 44 78
e 44 79
e 44 81
e 44 90
e 44 100
e 45 50
e 45 51
e 45 53
e 45 58
e 45 68
e 45 80
e 45 86
e 45 90
e 45 91
e 46 47
e 46 52
e 46 65
e 46 67
e 46 68
e 46 72
e 46 75
e 46 79
e 46 81
e 46 84
e 46 89
e 46 93
e 46 94
e 46 99
e 47 49
e 47 50
e 47 54
e 47 59
e 47 61
e 47 65
e 47 70
e 47 73
e 47 83
e 47 90
e 47 92
e 47 93
e 47 94
e 47 95
e 47 98
e 48 56
e 48 67
e 48 68
e 48 71
e 48 83
e 48 92
e 49 50
e 49 52
e 49 53
e 49 58
e 49 71
e 49 77
e 49 83
e 49 92
e 49 98
e 50 55
e 50 60
e 50 69
e 50 77
e 50 92
e 50 97
e 51 52
e 51 56
e 51 57
e 51 74
e 51 76
e 51 85
e 51 88
e 51 91
e 51 94
e 51 100
e 52 53
e 52 60
e 52 62
e 52 66
e 52 71
e 52 74
e 52 75
e 52 76
e 52 83
e 52 87
e 52 89
e 52 100
e 53 63
e 53 67
e 53 68
e 53 69
e 53 76
e 53 82
e 53 92
e 53 98
e 54 56
e 54 59
e 54 62
e 54 63
e 54 65
e 54 66
e 54 69
e 54 70
e 54 71
e 54 73
e 54 75
e 54 79
e 54 80
e 54 82
e 54 83
e 54 85
e 54 86
e 54 92
e 54 93
e 54 99
e 55 56
e 55 59
e 55 65
e 55 66
e 55 72
e 55 80
e 55 87
e 55 97
e 56 63
e 56 64
e 56 67
e 56 86
e 56 90
e 56 98
e 57 64
e 57 70
e 57 72
e 57 78
e 57 83
e 57 91
e 57 95
e 57 98
e 58 62
e 58 64
e 58 69
e 58 73
e 58 98
e 59 77
e 59 80
e 59 81
e 59 83
e 59 84
e 59 93
e 59 94
e 60 69
e 60 75
e 60 78
e 60 81
e 60 88
e 60 94
e 61 63
e 61 68
e 61 87
e 61 91
e 61 92
e 62 63
e 63 66
e 63 67
e 63 77
e 63 78
e 63 80
e 63 81
e 63 84
e 63 87
e 63 89
e 63 91
e 63 99
e 64 70
e 64 76
e 64 78
e 64 85
e 64 88
e 64 90
e 64 100
e 65 71
e 65 72
e 65 79
e 65 92
e 66 78
e 66 88
e 66 100
e 67 77
e 67 78
e 68 69
e 68 72
e 68 73
e 68 74
e 68 78
e 68 99
e 69 73
e 69 77
e 69 87
e 69 89
e 69 92
e 69 95
e 70 73
e 70 76
e 70 81
e 70 94
e 70 95
e 70 99
e 71 75
e 71 83
e 71 88
e 71 89
e 72 76
e 72 81
e 72 86
e 72 87
e 72 88
e 72 99
e 73 82
e 74 75
e 74 82
e 74 89
e 75 91
e 75 97
e 75 98
e 76 78
e 76 81
e 76 93
e 76 98
e 77 89
e 77 90
e 78 84
e 78 88
e 78 93
e 79 85
e 79 96
e 79 97
e 79 100
e 80 83
e 80 86
e 80 90
e 80 93
e 80 96
e 81 82
e 82 84
e 83 85
e 83 89
e 84 86
e 85 87
e 85 91
e 86 89
e 86 92
e 86 96
e 88 97
e 89 91
e 89 95
e 89 100
e 90 92
e 90 96
e 91 92
e 91 98
e 92 94
e 92 97
e 93 95
e 97 100
